NAME: st70
TYPE: TSP
COMMENT: 70-city problem (Smith/Thompson)
DIMENSION: 70
EDGE_WEIGHT_TYPE : EUC_2D
NODE_COORD_SECTION
1 64 96
2 80 39
3 69 23
4 72 42
5 48 67
6 58 43
7 81 34
8 79 17
9 30 23
10 42 67
11 7 76
12 29 51
13 78 92
14 64 8
15 95 57
16 57 91
17 40 35
18 68 40
19 92 34
20 62 1
21 28 43
22 76 73
23 67 88
24 93 54
25 6 8
26 87 18
27 30 9
28 77 13
29 78 94
30 55 3
31 82 88
32 73 28
33 20 55
34 27 43
35 95 86
36 67 99
37 48 83
38 75 81
39 8 19
40 20 18
41 54 38
42 63 36
43 44 33
44 52 18
45 12 13
46 25 5
47 58 85
48 5 67
49 90 9
50 41 76
51 25 76
52 37 64
53 56 63
54 10 55
55 98 7
56 16 74
57 89 60
58 48 82
59 81 76
60 29 60
61 17 22
62 5 45
63 79 70
64 9 100
65 17 82
66 74 67
67 10 68
68 48 19
69 83 86
70 84 94
EOF

DEMAND_SECTION
1 35

1 
2 3 4 5 6 7 8 9 10 11 12 13 14 15 16 17 18 19 20 21 22 23 24 25 26 27 28 29 30 31 32 33 34 35 36

35
 1  2 3
 1  3 3
 1  4 3
 1  5 3
 1  6 3
 1  7 3
 1  8 3
 1  9 3
 1 10 3
 1 11 3
 1 12 3
 1 13 3
 1 14 3
 1 15 3
 1 16 3
 1 17 3
 1 18 3
 1 19 3
 1 20 3
 1 21 3
 1 22 3
 1 23 3
 1 24 3
 1 25 3
 1 26 3
 1 27 3
 1 28 3
 1 29 3
 1 30 3
 1 31 3
 1 32 3
 1 33 3
 1 34 3
 1 35 3
 1 36 3
